p edge 41 103
e 1 11
e 1 14
e 1 15
e 1 16
e 1 41
e 2 3
e 2 4
e 2 5
e 2 6
e 2 7
e 2 8
e 2 9
e 2 11
e 2 14
e 2 17
e 2 18
e 2 19
e 2 20
e 2 21
e 2 22
e 2 23
e 2 24
e 2 28
e 2 29
e 2 31
e 2 33
e 2 34
e 2 36
e 2 39
e 2 40
e 3 11
e 3 14
e 3 17
e 3 18
e 3 41
e 4 5
e 4 6
e 4 11
e 4 19
e 4 20
e 4 21
e 4 22
e 4 23
e 4 24
e 4 28
e 4 29
e 4 31
e 4 39
e 5 6
e 5 11
e 5 31
e 5 39
e 6 11
e 6 39
e 7 11
e 7 33
e 8 9
e 8 11
e 8 36
e 8 40
e 9 11
e 9 40
e 10 11
e 10 38
e 11 12
e 11 13
e 11 14
e 11 15
e 11 16
e 11 17
e 11 18
e 11 19
e 11 20
e 11 21
e 11 22
e 11 23
e 11 24
e 11 28
e 11 29
e 11 31
e 11 33
e 11 34
e 11 36
e 11 38
e 11 39
e 11 40
e 14 15
e 14 16
e 15 16
e 17 18
e 19 20
e 19 21
e 19 22
e 19 23
e 20 21
e 20 22
e 20 23
e 21 22
e 21 23
e 22 23
e 25 41
e 26 41
e 27 41
